<number of tasks>
50

<cycle time>
1000

<order strength>
0.897


<task times>
1 31
2 150
3 213
4 59
5 203
6 114
7 198
8 243
9 503
10 118
11 95
12 139
13 231
14 471
15 240
16 375
17 260
18 389
19 89
20 155
21 142
22 190
23 181
24 197
25 267
26 257
27 243
28 120
29 111
30 159
31 189
32 155
33 28
34 131
35 274
36 501
37 151
38 282
39 173
40 155
41 218
42 153
43 178
44 566
45 194
46 234
47 139
48 59
49 80
50 300

<precedence relations>
1,3
1,4
1,5
2,3
2,4
2,5
3,6
3,7
3,8
4,6
4,7
4,8
5,6
5,7
5,8
6,9
6,10
6,11
7,9
7,10
7,11
8,9
8,10
8,11
9,12
9,13
9,14
10,12
10,13
10,14
11,13
11,14
12,15
13,15
14,17
15,16
15,17
15,18
16,19
17,20
17,21
18,19
18,20
18,21
19,22
19,23
20,22
20,23
21,22
21,23
22,24
22,25
22,26
23,24
23,25
23,26
24,27
24,28
24,29
25,27
26,27
26,28
26,29
27,30
27,33
28,31
28,32
28,33
29,30
29,31
29,32
30,34
30,35
31,35
31,36
32,34
32,37
32,39
33,34
34,38
35,37
35,39
36,37
37,40
37,41
38,40
39,42
40,44
41,49
42,43
42,45
44,45
44,46
46,47
46,48
46,49
46,50

<end>
